bacp/02/params/inst-369-1-1037025002.param
language Essence 1.3
$ generated by bacp-gen.pl with seed 1037025002
$ edge probability 0.1258
$ course loads in range 3..9
letting n_courses be 130
letting n_periods be 28
letting load_per_period_lb be 1
letting load_per_period_ub be 26
letting courses_per_period_lb be 3
letting courses_per_period_ub be 5
letting course_load be function(
1 --> 3,
2 --> 7,
3 --> 3,
4 --> 3,
5 --> 6,
6 --> 4,
7 --> 8,
8 --> 3,
9 --> 3,
10 --> 9,
11 --> 8,
12 --> 5,
13 --> 7,
14 --> 5,
15 --> 3,
16 --> 4,
17 --> 4,
18 --> 4,
19 --> 4,
20 --> 5,
21 --> 3,
22 --> 5,
23 --> 3,
24 --> 6,
25 --> 7,
26 --> 8,
27 --> 3,
28 --> 4,
29 --> 8,
30 --> 4,
31 --> 6,
32 --> 6,
33 --> 4,
34 --> 3,
35 --> 3,
36 --> 5,
37 --> 7,
38 --> 6,
39 --> 6,
40 --> 3,
41 --> 6,
42 --> 4,
43 --> 9,
44 --> 6,
45 --> 3,
46 --> 7,
47 --> 7,
48 --> 7,
49 --> 3,
50 --> 3,
51 --> 3,
52 --> 7,
53 --> 5,
54 --> 5,
55 --> 3,
56 --> 5,
57 --> 5,
58 --> 4,
59 --> 8,
60 --> 3,
61 --> 4,
62 --> 5,
63 --> 7,
64 --> 6,
65 --> 4,
66 --> 5,
67 --> 4,
68 --> 3,
69 --> 8,
70 --> 6,
71 --> 6,
72 --> 3,
73 --> 6,
74 --> 6,
75 --> 3,
76 --> 6,
77 --> 7,
78 --> 3,
79 --> 4,
80 --> 6,
81 --> 8,
82 --> 8,
83 --> 4,
84 --> 8,
85 --> 4,
86 --> 5,
87 --> 3,
88 --> 3,
89 --> 6,
90 --> 6,
91 --> 7,
92 --> 7,
93 --> 5,
94 --> 7,
95 --> 7,
96 --> 6,
97 --> 6,
98 --> 6,
99 --> 8,
100 --> 6,
101 --> 4,
102 --> 7,
103 --> 5,
104 --> 6,
105 --> 8,
106 --> 5,
107 --> 4,
108 --> 7,
109 --> 8,
110 --> 8,
111 --> 5,
112 --> 5,
113 --> 8,
114 --> 4,
115 --> 9,
116 --> 5,
117 --> 5,
118 --> 6,
119 --> 6,
120 --> 4,
121 --> 3,
122 --> 3,
123 --> 7,
124 --> 5,
125 --> 6,
126 --> 7,
127 --> 4,
128 --> 7,
129 --> 8,
130 --> 7
)
letting prerequisite be relation (
(5,19),
(15,20),
(14,21),
(16,22),
(8,23),
(9,24),
(12,25),
(9,26),
(3,27),
(9,28),
(12,29),
(4,30),
(13,31),
(5,32),
(9,33),
(9,34),
(16,35),
(11,36),
(15,37),
(18,38),
(5,39),
(3,40),
(6,41),
(5,42),
(6,43),
(7,44),
(9,45),
(13,46),
(2,47),
(13,48),
(16,49),
(13,50),
(3,51),
(11,52),
(7,53),
(18,54),
(6,55),
(4,56),
(2,57),
(17,58),
(6,59),
(7,60),
(13,61),
(16,62),
(2,63),
(8,64),
(3,65),
(16,66),
(7,67),
(16,68),
(17,69),
(6,70),
(5,71),
(13,72),
(12,73),
(1,74),
(8,75),
(10,76),
(2,77),
(10,78),
(17,79),
(1,80),
(1,81),
(1,82),
(3,83),
(12,84),
(7,85),
(11,86),
(2,87),
(11,88),
(3,89),
(3,90),
(4,91),
(8,92),
(18,93),
(18,94),
(9,95),
(3,96),
(8,97),
(12,98),
(10,99),
(16,100),
(15,101),
(5,102),
(6,103),
(41,104),
(94,105),
(58,106),
(47,107),
(76,108),
(103,109),
(30,110),
(82,111),
(27,112),
(103,113),
(28,114),
(77,115),
(60,116),
(63,117),
(100,118),
(20,119),
(55,120),
(32,121),
(57,122),
(34,123),
(69,124),
(93,125),
(95,126),
(77,127),
(44,128),
(73,129),
(39,130),
(15,65),
(11,57),
(89,116),
(96,108),
(60,127),
(4,99),
(21,125),
(14,68),
(17,67),
(4,24),
(17,19),
(16,34),
(80,114),
(45,106),
(21,123),
(18,74),
(1,20),
(40,111),
(17,54),
(70,130),
(4,59),
(16,28),
(17,96),
(12,83),
(72,110),
(24,130),
(40,125),
(1,59),
(4,92),
(10,51),
(11,21),
(6,75),
(38,113),
(13,22),
(4,89),
(103,129),
(70,120),
(84,122),
(42,113),
(95,118),
(55,115),
(76,106),
(3,25),
(14,79),
(7,58),
(2,42),
(9,20),
(92,107),
(66,113),
(72,114),
(47,130),
(33,127),
(3,19),
(56,127),
(9,56),
(12,24),
(10,71),
(8,67),
(3,80),
(24,121),
(40,130),
(15,34),
(32,109),
(81,117),
(102,116),
(15,63),
(11,70),
(17,50),
(17,78),
(5,64),
(70,128),
(88,125),
(5,54),
(12,37),
(10,23),
(46,104),
(33,109),
(78,121),
(55,113),
(8,84),
(100,128),
(10,37),
(25,108),
(7,97),
(93,107),
(88,106),
(1,44),
(49,128),
(17,93),
(80,105),
(14,45),
(76,115),
(19,119),
(33,108),
(4,72),
(12,19),
(54,128),
(15,77),
(24,115),
(26,107),
(1,70),
(17,20),
(67,110),
(6,36),
(74,104),
(93,113),
(77,104),
(8,31),
(42,117),
(58,111),
(8,45),
(30,111),
(9,103),
(92,109),
(41,116),
(3,44),
(11,92),
(99,112),
(14,90),
(96,118),
(33,122),
(13,30),
(32,104),
(94,121),
(12,92),
(60,104),
(87,111),
(5,94),
(11,23),
(61,128),
(3,79),
(18,48),
(7,30),
(3,54),
(63,128),
(12,58),
(68,112),
(84,104),
(50,124),
(26,108),
(10,85),
(14,85),
(2,76),
(76,107),
(25,116),
(40,119),
(5,61),
(9,29),
(99,109),
(17,97),
(100,130),
(3,94),
(63,105),
(5,38),
(68,104),
(8,29),
(98,127),
(57,111),
(38,126),
(26,110),
(12,60),
(56,106),
(80,130),
(13,98),
(69,109),
(100,115),
(6,69),
(4,43),
(38,107),
(17,62),
(31,116),
(86,130),
(52,110),
(2,86),
(93,110),
(15,66),
(18,57),
(5,79),
(87,128),
(3,21),
(82,110),
(63,129),
(96,111),
(6,67),
(4,27),
(12,20),
(6,19),
(39,110),
(14,103),
(85,130),
(56,108),
(5,31),
(2,100),
(3,42),
(99,119),
(25,115),
(71,128),
(17,88),
(3,74),
(1,96),
(8,93),
(43,130),
(95,114),
(98,121),
(22,104),
(13,103),
(54,117),
(14,97),
(42,106),
(65,107),
(16,44),
(17,84),
(66,107),
(7,24),
(16,32),
(86,119),
(10,38),
(71,113),
(7,68),
(2,70),
(8,76),
(94,119),
(15,42),
(11,81),
(13,35),
(9,19),
(17,55),
(2,44),
(70,118),
(25,121),
(1,55),
(14,72),
(16,70),
(13,91),
(97,127),
(71,106),
(6,74),
(23,108),
(6,98),
(58,113),
(16,36),
(10,103),
(15,28),
(11,78),
(6,90),
(17,83),
(95,109),
(91,111),
(53,113),
(5,77),
(8,39),
(6,78),
(17,90),
(15,91),
(20,113),
(17,75),
(82,119),
(80,115),
(7,96),
(24,128),
(79,119),
(8,90),
(44,119),
(32,110),
(99,126),
(1,91),
(12,35),
(24,104),
(8,38),
(5,47),
(10,21),
(1,36),
(8,48),
(33,114),
(52,128),
(16,80),
(7,98),
(17,34),
(98,107),
(13,63),
(9,53),
(76,121),
(68,119),
(3,52),
(6,83),
(99,130),
(13,54),
(11,91),
(9,60),
(83,107),
(13,47),
(42,125),
(35,115),
(66,123),
(73,123),
(14,78),
(18,69),
(70,116),
(59,105),
(17,74),
(5,100),
(86,115),
(25,105),
(79,122),
(12,55),
(16,85),
(44,107),
(9,55),
(13,52),
(45,125),
(27,113),
(46,129),
(18,56),
(37,122),
(16,102),
(32,122),
(6,45),
(54,104),
(85,119),
(2,95),
(18,84),
(30,117),
(10,27),
(12,95),
(16,40),
(95,127),
(27,127),
(93,126),
(29,123),
(5,27),
(12,45),
(26,104),
(96,126),
(2,27),
(80,121),
(16,88),
(42,123),
(44,123),
(98,128),
(53,106),
(75,117),
(53,109),
(54,130),
(3,56),
(61,124),
(49,104),
(5,65),
(12,64),
(14,102),
(61,113),
(3,50),
(58,112),
(3,59),
(19,125),
(98,106),
(37,125),
(17,22),
(16,41),
(89,110),
(81,125),
(40,128),
(1,85),
(39,124),
(7,38),
(19,104),
(99,105),
(3,63),
(17,23),
(79,109)
)

