bacp/param_dec/inst-369-1-1037025002.eprime-param
language ESSENCE' 1.0

letting n_courses be 130
letting n_periods be 28
letting prerequisite_RelationAsSet_Explicit_1 be
        [1, 1, 1, 1, 1, 1, 1, 1, 1, 1, 1, 1, 1, 2, 2, 2, 2, 2, 2, 2, 2, 2, 2, 2, 2, 2, 3, 3, 3, 3, 3, 3, 3, 3, 3, 3, 3,
         3, 3, 3, 3, 3, 3, 3, 3, 3, 3, 3, 3, 4, 4, 4, 4, 4, 4, 4, 4, 4, 4, 4, 5, 5, 5, 5, 5, 5, 5, 5, 5, 5, 5, 5, 5, 5,
         5, 5, 5, 5, 6, 6, 6, 6, 6, 6, 6, 6, 6, 6, 6, 6, 6, 6, 6, 6, 6, 7, 7, 7, 7, 7, 7, 7, 7, 7, 7, 7, 7, 7, 8, 8, 8,
         8, 8, 8, 8, 8, 8, 8, 8, 8, 8, 8, 8, 8, 9, 9, 9, 9, 9, 9, 9, 9, 9, 9, 9, 9, 9, 9, 9, 10, 10, 10, 10, 10, 10, 10,
         10, 10, 10, 10, 10, 11, 11, 11, 11, 11, 11, 11, 11, 11, 11, 11, 11, 12, 12, 12, 12, 12, 12, 12, 12, 12, 12, 12,
         12, 12, 12, 12, 12, 12, 12, 13, 13, 13, 13, 13, 13, 13, 13, 13, 13, 13, 13, 13, 13, 13, 13, 14, 14, 14, 14, 14,
         14, 14, 14, 14, 14, 14, 15, 15, 15, 15, 15, 15, 15, 15, 15, 15, 15, 16, 16, 16, 16, 16, 16, 16, 16, 16, 16, 16,
         16, 16, 16, 16, 16, 16, 16, 16, 17, 17, 17, 17, 17, 17, 17, 17, 17, 17, 17, 17, 17, 17, 17, 17, 17, 17, 17, 17,
         17, 17, 17, 18, 18, 18, 18, 18, 18, 18, 18, 18, 18, 19, 19, 19, 20, 20, 21, 21, 22, 23, 24, 24, 24, 24, 24, 25,
         25, 25, 25, 25, 26, 26, 26, 26, 27, 27, 27, 28, 29, 30, 30, 30, 31, 32, 32, 32, 32, 32, 33, 33, 33, 33, 33, 34,
         35, 37, 37, 38, 38, 38, 39, 39, 39, 40, 40, 40, 40, 40, 41, 41, 42, 42, 42, 42, 42, 43, 44, 44, 44, 44, 45, 45,
         46, 46, 47, 47, 49, 49, 50, 52, 52, 53, 53, 53, 54, 54, 54, 54, 55, 55, 55, 56, 56, 56, 57, 57, 58, 58, 58, 58,
         59, 60, 60, 60, 61, 61, 61, 63, 63, 63, 63, 65, 66, 66, 66, 67, 68, 68, 68, 69, 69, 70, 70, 70, 70, 70, 71, 71,
         71, 72, 72, 73, 73, 74, 75, 76, 76, 76, 76, 76, 77, 77, 77, 78, 79, 79, 79, 80, 80, 80, 80, 80, 81, 81, 82, 82,
         82, 83, 84, 84, 85, 85, 86, 86, 86, 87, 87, 88, 88, 89, 89, 91, 92, 92, 93, 93, 93, 93, 93, 94, 94, 94, 95, 95,
         95, 95, 95, 96, 96, 96, 96, 97, 98, 98, 98, 98, 98, 99, 99, 99, 99, 99, 99, 100, 100, 100, 100, 102, 103, 103,
         103;
             int(1..481)]
letting prerequisite_RelationAsSet_Explicit_2 be
        [20, 36, 44, 55, 59, 70, 74, 80, 81, 82, 85, 91, 96, 27, 42, 44, 47, 57, 63, 70, 76, 77, 86, 87, 95, 100, 19,
         21, 25, 27, 40, 42, 44, 50, 51, 52, 54, 56, 59, 63, 65, 74, 79, 80, 83, 89, 90, 94, 96, 24, 27, 30, 43, 56, 59,
         72, 89, 91, 92, 99, 19, 27, 31, 32, 38, 39, 42, 47, 54, 61, 64, 65, 71, 77, 79, 94, 100, 102, 19, 36, 41, 43,
         45, 55, 59, 67, 69, 70, 74, 75, 78, 83, 90, 98, 103, 24, 30, 38, 44, 53, 58, 60, 67, 68, 85, 96, 97, 98, 23,
         29, 31, 38, 39, 45, 48, 64, 67, 75, 76, 84, 90, 92, 93, 97, 19, 20, 24, 26, 28, 29, 33, 34, 45, 53, 55, 56, 60,
         95, 103, 21, 23, 27, 37, 38, 51, 71, 76, 78, 85, 99, 103, 21, 23, 36, 52, 57, 70, 78, 81, 86, 88, 91, 92, 19,
         20, 24, 25, 29, 35, 37, 45, 55, 58, 60, 64, 73, 83, 84, 92, 95, 98, 22, 30, 31, 35, 46, 47, 48, 50, 52, 54, 61,
         63, 72, 91, 98, 103, 21, 45, 68, 72, 78, 79, 85, 90, 97, 102, 103, 20, 28, 34, 37, 42, 63, 65, 66, 77, 91, 101,
         22, 28, 32, 34, 35, 36, 40, 41, 44, 49, 62, 66, 68, 70, 80, 85, 88, 100, 102, 19, 20, 22, 23, 34, 50, 54, 55,
         58, 62, 67, 69, 74, 75, 78, 79, 83, 84, 88, 90, 93, 96, 97, 38, 48, 54, 56, 57, 69, 74, 84, 93, 94, 104, 119,
         125, 113, 119, 123, 125, 104, 108, 104, 115, 121, 128, 130, 105, 108, 115, 116, 121, 104, 107, 108, 110, 112,
         113, 127, 114, 123, 110, 111, 117, 116, 104, 109, 110, 121, 122, 108, 109, 114, 122, 127, 123, 115, 122, 125,
         107, 113, 126, 110, 124, 130, 111, 119, 125, 128, 130, 104, 116, 106, 113, 117, 123, 125, 130, 107, 119, 123,
         128, 106, 125, 104, 129, 107, 130, 104, 128, 124, 110, 128, 106, 109, 113, 104, 117, 128, 130, 113, 115, 120,
         106, 108, 127, 111, 122, 106, 111, 112, 113, 105, 104, 116, 127, 113, 124, 128, 105, 117, 128, 129, 107, 107,
         113, 123, 110, 104, 112, 119, 109, 124, 116, 118, 120, 128, 130, 106, 113, 128, 110, 114, 123, 129, 104, 117,
         106, 107, 108, 115, 121, 104, 115, 127, 121, 109, 119, 122, 105, 114, 115, 121, 130, 117, 125, 110, 111, 119,
         107, 104, 122, 119, 130, 115, 119, 130, 111, 128, 106, 125, 110, 116, 111, 107, 109, 107, 110, 113, 125, 126,
         105, 119, 121, 109, 114, 118, 126, 127, 108, 111, 118, 126, 127, 106, 107, 121, 127, 128, 105, 109, 112, 119,
         126, 130, 115, 118, 128, 130, 116, 109, 113, 129;
             int(1..481)]
letting course_load_Function1D be
        [3, 7, 3, 3, 6, 4, 8, 3, 3, 9, 8, 5, 7, 5, 3, 4, 4, 4, 4, 5, 3, 5, 3, 6, 7, 8, 3, 4, 8, 4, 6, 6, 4, 3, 3, 5, 7,
         6, 6, 3, 6, 4, 9, 6, 3, 7, 7, 7, 3, 3, 3, 7, 5, 5, 3, 5, 5, 4, 8, 3, 4, 5, 7, 6, 4, 5, 4, 3, 8, 6, 6, 3, 6, 6,
         3, 6, 7, 3, 4, 6, 8, 8, 4, 8, 4, 5, 3, 3, 6, 6, 7, 7, 5, 7, 7, 6, 6, 6, 8, 6, 4, 7, 5, 6, 8, 5, 4, 7, 8, 8, 5,
         5, 8, 4, 9, 5, 5, 6, 6, 4, 3, 3, 7, 5, 6, 7, 4, 7, 8, 7;
             int(1..130)]
letting load_per_period_ub be 26
letting load_per_period_lb be 1
letting courses_per_period_ub be 5
letting courses_per_period_lb be 3
letting fin1 be 481
letting fin2 be 130
letting fin3 be 9
